Maximize
	+ 1 x1 + 1 x2 + 5 x3 + 4 x6 
Maximize
	+ 3 x1 + 1 x2 + 5 x4 - 4 x6 
Maximize
	+ 6 x2 - 3 x3 + 1 x4 - 1 x5 + 4 x6 
Subject To
	- 3 x1 - 4 x2 + 6 x3 + 6 x4 + 4 x5 <= 3
	+ 6 x2 - 2 x3 + 6 x5 - 1 x6 <= 10
	+ 6 x1 - 4 x2 - 3 x3 + 3 x6 <= 3
Bounds
	0 <= x1 <= 4
	0 <= x2 <= 4
	0 <= x3 <= 4
	0 <= x4 <= 4
	0 <= x5 <= 4
	0 <= x6 <= 4
Integers
	x1 x2 x3 x4 x5 x6 
End